\ LP format - for model browsing. Use MPS format to capture full model detail.
Minimize
  880 b_0 + 880 b_1 + 880 b_2 + 880 b_3 + 880 b_4 + 880 b_5 + 880 b_6 + u
Subject To
 R0: 12 x_00 + 12 x_10 + 12 x_20 + 15 x_30 + 12 x_40 + 15 x_50 + 12 x_60
   + 15 x_70 + 15 x_80 + 15 x_90 + 9 x_100 + 12 x_110 + 15 x_120 + s_0
   - e_0 = 400
 R1: 15 x_01 + 12 x_11 + 12 x_21 + 9 x_31 + 15 x_41 + 9 x_51 + 15 x_61
   + 12 x_71 + 15 x_81 + 15 x_91 + 9 x_101 + 12 x_111 + 12 x_121 + 12 x_131
   + 12 x_141 + 12 x_151 + 15 x_161 + 9 x_171 + 12 x_181 + 15 x_191
   + 12 x_201 + 12 x_211 + s_1 - e_1 = 400
 R2: 9 x_02 + 12 x_12 + 12 x_22 + 15 x_32 + 12 x_42 + 12 x_52 + 9 x_62
   + 12 x_72 + 12 x_82 + 15 x_92 + 12 x_102 + 12 x_112 + 12 x_122 + 9 x_132
   + 15 x_142 + 12 x_152 + 12 x_162 + s_2 - e_2 = 400
 R3: 15 x_03 + 12 x_13 + 15 x_23 + 15 x_33 + 15 x_43 + 12 x_53 + 12 x_63
   + 9 x_73 + 15 x_83 + 9 x_93 + 12 x_103 + 12 x_113 + 12 x_123 + 12 x_133
   + s_3 - e_3 = 400
 R4: 12 x_04 + 12 x_14 + 15 x_24 + 9 x_34 + 15 x_44 + 9 x_54 + 15 x_64
   + 12 x_74 + 12 x_84 + 12 x_94 + 15 x_104 + 9 x_114 + 12 x_124 + 15 x_134
   + 12 x_144 + 12 x_154 + 15 x_164 + 15 x_174 + 15 x_184 + 15 x_194
   + 12 x_204 + 15 x_214 + 15 x_224 + 12 x_234 + 15 x_244 + 12 x_254
   + 15 x_264 + 12 x_274 + 12 x_284 + 15 x_294 + 12 x_304 + 12 x_314
   + 15 x_324 + 12 x_334 + 15 x_344 + 12 x_354 + 12 x_364 + 12 x_374
   + 12 x_384 + s_4 - e_4 = 400
 R5: 9 x_05 + 12 x_15 + 9 x_25 + 15 x_35 + 15 x_45 + 12 x_55 + 12 x_65
   + 15 x_75 + 9 x_85 + 9 x_95 + 15 x_105 + 15 x_115 + 15 x_125 + 15 x_135
   + 15 x_145 + 15 x_155 + 12 x_165 + 12 x_175 + 12 x_185 + 12 x_195
   + 12 x_205 + 12 x_215 + 9 x_225 + 15 x_235 + 12 x_245 + 15 x_255
   + 9 x_265 + 12 x_275 + 15 x_285 + 12 x_295 + 15 x_305 + 9 x_315
   + 12 x_325 + 15 x_335 + s_5 - e_5 = 400
 R6: 12 x_06 + 15 x_16 + 15 x_26 + 12 x_36 + 15 x_46 + 12 x_56 + 15 x_66
   + 12 x_76 + 15 x_86 + 12 x_96 + 15 x_106 + 15 x_116 + 12 x_126 + 9 x_136
   + s_6 - e_6 = 400
 R7: 1e+06 b_0 - e_0 >= 0
 R8: 1e+06 b_1 - e_1 >= 0
 R9: 1e+06 b_2 - e_2 >= 0
 R10: 1e+06 b_3 - e_3 >= 0
 R11: 1e+06 b_4 - e_4 >= 0
 R12: 1e+06 b_5 - e_5 >= 0
 R13: 1e+06 b_6 - e_6 >= 0
 R14: e_0 <= 80
 R15: e_1 <= 80
 R16: e_2 <= 80
 R17: e_3 <= 80
 R18: e_4 <= 80
 R19: e_5 <= 80
 R20: e_6 <= 80
 R21: x_00 <= 1
 R22: x_10 <= 1
 R23: x_20 <= 1
 R24: x_30 <= 1
 R25: x_40 <= 1
 R26: x_50 <= 1
 R27: x_60 <= 1
 R28: x_70 <= 1
 R29: x_80 <= 1
 R30: x_90 <= 1
 R31: x_100 <= 1
 R32: x_110 <= 1
 R33: x_120 <= 1
 R34: x_01 <= 1
 R35: x_11 <= 1
 R36: x_21 <= 1
 R37: x_31 <= 1
 R38: x_41 <= 1
 R39: x_51 <= 1
 R40: x_61 <= 1
 R41: x_71 <= 1
 R42: x_81 <= 1
 R43: x_91 <= 1
 R44: x_101 <= 1
 R45: x_111 <= 1
 R46: x_121 <= 1
 R47: x_131 <= 1
 R48: x_141 <= 1
 R49: x_151 <= 1
 R50: x_161 <= 1
 R51: x_171 <= 1
 R52: x_181 <= 1
 R53: x_191 <= 1
 R54: x_201 <= 1
 R55: x_211 <= 1
 R56: x_02 <= 1
 R57: x_12 <= 1
 R58: x_22 <= 1
 R59: x_32 <= 1
 R60: x_42 <= 1
 R61: x_52 <= 1
 R62: x_62 <= 1
 R63: x_72 <= 1
 R64: x_82 <= 1
 R65: x_92 <= 1
 R66: x_102 <= 1
 R67: x_112 <= 1
 R68: x_122 <= 1
 R69: x_132 <= 1
 R70: x_142 <= 1
 R71: x_152 <= 1
 R72: x_162 <= 1
 R73: x_03 <= 1
 R74: x_13 <= 1
 R75: x_23 <= 1
 R76: x_33 <= 1
 R77: x_43 <= 1
 R78: x_53 <= 1
 R79: x_63 <= 1
 R80: x_73 <= 1
 R81: x_83 <= 1
 R82: x_93 <= 1
 R83: x_103 <= 1
 R84: x_113 <= 1
 R85: x_123 <= 1
 R86: x_133 <= 1
 R87: x_04 <= 1
 R88: x_14 <= 1
 R89: x_24 <= 1
 R90: x_34 <= 1
 R91: x_44 <= 1
 R92: x_54 <= 1
 R93: x_64 <= 1
 R94: x_74 <= 1
 R95: x_84 <= 1
 R96: x_94 <= 1
 R97: x_104 <= 1
 R98: x_114 <= 1
 R99: x_124 <= 1
 R100: x_134 <= 1
 R101: x_144 <= 1
 R102: x_154 <= 1
 R103: x_164 <= 1
 R104: x_174 <= 1
 R105: x_184 <= 1
 R106: x_194 <= 1
 R107: x_204 <= 1
 R108: x_214 <= 1
 R109: x_224 <= 1
 R110: x_234 <= 1
 R111: x_244 <= 1
 R112: x_254 <= 1
 R113: x_264 <= 1
 R114: x_274 <= 1
 R115: x_284 <= 1
 R116: x_294 <= 1
 R117: x_304 <= 1
 R118: x_314 <= 1
 R119: x_324 <= 1
 R120: x_334 <= 1
 R121: x_344 <= 1
 R122: x_354 <= 1
 R123: x_364 <= 1
 R124: x_374 <= 1
 R125: x_384 <= 1
 R126: x_05 <= 1
 R127: x_15 <= 1
 R128: x_25 <= 1
 R129: x_35 <= 1
 R130: x_45 <= 1
 R131: x_55 <= 1
 R132: x_65 <= 1
 R133: x_75 <= 1
 R134: x_85 <= 1
 R135: x_95 <= 1
 R136: x_105 <= 1
 R137: x_115 <= 1
 R138: x_125 <= 1
 R139: x_135 <= 1
 R140: x_145 <= 1
 R141: x_155 <= 1
 R142: x_165 <= 1
 R143: x_175 <= 1
 R144: x_185 <= 1
 R145: x_195 <= 1
 R146: x_205 <= 1
 R147: x_215 <= 1
 R148: x_225 <= 1
 R149: x_235 <= 1
 R150: x_245 <= 1
 R151: x_255 <= 1
 R152: x_265 <= 1
 R153: x_275 <= 1
 R154: x_285 <= 1
 R155: x_295 <= 1
 R156: x_305 <= 1
 R157: x_315 <= 1
 R158: x_325 <= 1
 R159: x_335 <= 1
 R160: x_06 <= 1
 R161: x_16 <= 1
 R162: x_26 <= 1
 R163: x_36 <= 1
 R164: x_46 <= 1
 R165: x_56 <= 1
 R166: x_66 <= 1
 R167: x_76 <= 1
 R168: x_86 <= 1
 R169: x_96 <= 1
 R170: x_106 <= 1
 R171: x_116 <= 1
 R172: x_126 <= 1
 R173: x_136 <= 1
 R174: 88 x_00 + 88 x_10 + 75 x_20 + 168 x_30 + 75 x_40 + 120 x_50
   + 88 x_60 + 168 x_70 + 120 x_80 + 120 x_90 + 52 x_100 + 88 x_110
   + 168 x_120 + 168 x_01 + 75 x_11 + 88 x_21 + 52 x_31 + 168 x_41
   + 52 x_51 + 168 x_61 + 88 x_71 + 120 x_81 + 120 x_91 + 52 x_101
   + 75 x_111 + 88 x_121 + 75 x_131 + 75 x_141 + 88 x_151 + 120 x_161
   + 52 x_171 + 75 x_181 + 120 x_191 + 88 x_201 + 88 x_211 + 52 x_02
   + 88 x_12 + 75 x_22 + 120 x_32 + 75 x_42 + 88 x_52 + 52 x_62 + 88 x_72
   + 88 x_82 + 120 x_92 + 75 x_102 + 75 x_112 + 75 x_122 + 52 x_132
   + 168 x_142 + 75 x_152 + 75 x_162 + 120 x_03 + 88 x_13 + 120 x_23
   + 120 x_33 + 168 x_43 + 75 x_53 + 75 x_63 + 52 x_73 + 120 x_83 + 52 x_93
   + 88 x_103 + 75 x_113 + 75 x_123 + 88 x_133 + 75 x_04 + 88 x_14
   + 168 x_24 + 52 x_34 + 168 x_44 + 52 x_54 + 120 x_64 + 88 x_74 + 75 x_84
   + 75 x_94 + 168 x_104 + 52 x_114 + 88 x_124 + 120 x_134 + 75 x_144
   + 88 x_154 + 120 x_164 + 168 x_174 + 120 x_184 + 120 x_194 + 75 x_204
   + 120 x_214 + 168 x_224 + 88 x_234 + 120 x_244 + 75 x_254 + 120 x_264
   + 88 x_274 + 75 x_284 + 168 x_294 + 88 x_304 + 88 x_314 + 168 x_324
   + 75 x_334 + 120 x_344 + 88 x_354 + 88 x_364 + 88 x_374 + 88 x_384
   + 52 x_05 + 75 x_15 + 52 x_25 + 168 x_35 + 120 x_45 + 88 x_55 + 75 x_65
   + 168 x_75 + 52 x_85 + 52 x_95 + 168 x_105 + 120 x_115 + 120 x_125
   + 168 x_135 + 168 x_145 + 168 x_155 + 75 x_165 + 75 x_175 + 88 x_185
   + 88 x_195 + 75 x_205 + 88 x_215 + 52 x_225 + 120 x_235 + 88 x_245
   + 168 x_255 + 52 x_265 + 88 x_275 + 168 x_285 + 75 x_295 + 120 x_305
   + 52 x_315 + 75 x_325 + 168 x_335 + 88 x_06 + 168 x_16 + 120 x_26
   + 88 x_36 + 120 x_46 + 75 x_56 + 168 x_66 + 75 x_76 + 120 x_86 + 75 x_96
   + 168 x_106 + 168 x_116 + 75 x_126 + 52 x_136 + u = 18000
Bounds
Binaries
 x_00 x_10 x_20 x_30 x_40 x_50 x_60 x_70 x_80 x_90 x_100 x_110 x_120 x_01
 x_11 x_21 x_31 x_41 x_51 x_61 x_71 x_81 x_91 x_101 x_111 x_121 x_131 x_141
 x_151 x_161 x_171 x_181 x_191 x_201 x_211 x_02 x_12 x_22 x_32 x_42 x_52
 x_62 x_72 x_82 x_92 x_102 x_112 x_122 x_132 x_142 x_152 x_162 x_03 x_13
 x_23 x_33 x_43 x_53 x_63 x_73 x_83 x_93 x_103 x_113 x_123 x_133 x_04 x_14
 x_24 x_34 x_44 x_54 x_64 x_74 x_84 x_94 x_104 x_114 x_124 x_134 x_144
 x_154 x_164 x_174 x_184 x_194 x_204 x_214 x_224 x_234 x_244 x_254 x_264
 x_274 x_284 x_294 x_304 x_314 x_324 x_334 x_344 x_354 x_364 x_374 x_384
 x_05 x_15 x_25 x_35 x_45 x_55 x_65 x_75 x_85 x_95 x_105 x_115 x_125 x_135
 x_145 x_155 x_165 x_175 x_185 x_195 x_205 x_215 x_225 x_235 x_245 x_255
 x_265 x_275 x_285 x_295 x_305 x_315 x_325 x_335 x_06 x_16 x_26 x_36 x_46
 x_56 x_66 x_76 x_86 x_96 x_106 x_116 x_126 x_136 b_0 b_1 b_2 b_3 b_4 b_5
 b_6
Generals
 s_0 s_1 s_2 s_3 s_4 s_5 s_6 e_0 e_1 e_2 e_3 e_4 e_5 e_6 u
End
